NAME : mr67
COMMENT : 67-city problem (DISC)
TYPE : TSP
DIMENSION : 67
EDGE_WEIGHT_TYPE : EUC_2D
NODE_COORD_SECTION
1 55 25
2 86 3
3 69 70
4 34 30
5 6 77
6 39 19
7 22 47
8 94 2
9 73 16
10 5 17
11 83 24
12 60 63
13 26 17
14 32 36
15 19 81
16 36 80
17 26 15
18 2 24
19 41 47
20 42 95
21 5 53
22 96 33
23 40 10
24 53 22
25 24 3
26 31 67
27 56 24
28 71 80
29 96 34
30 61 3
31 41 97
32 36 95
33 82 88
34 30 71
35 55 18
36 97 81
37 19 39
38 73 72
39 74 29
40 5 10
41 97 67
42 38 92
43 71 12
44 28 3
45 25 91
46 31 86
47 14 76
48 98 47
49 1 13
50 90 55
51 36 19
52 93 42
53 41 66
54 47 9
55 45 59
56 91 73
57 65 5
58 24 46
59 68 12
60 43 67
61 23 16
62 16 77
63 46 77
64 83 81
65 64 2
66 100 74
67 53 88
EOF
